; benchmark generated from python API
(set-info :status unknown)
(declare-fun x_month () Int)
(declare-fun x_day () Int)
(declare-fun x_year () Int)
(assert
 (>= x_month 1))
(assert
 (<= x_month 12))
(assert
 (>= x_day 1))
(assert
 (<= x_day 31))
(assert
 (let (($x269 (<= x_day 28)))
 (let (($x320 (<= x_day 29)))
 (let (($x294 (= (mod x_year 400) 0)))
 (let (($x283 (= (mod x_year 4) 0)))
 (let (($x347 (ite (or (and $x283 (and (distinct (mod x_year 100) 0) true)) $x294) $x320 $x269)))
 (let (($x284 (= x_month 2)))
 (ite $x284 $x347 true))))))))
(assert
 (let (($x345 (<= x_day 30)))
 (let (($x338 (or (= x_month 4) (= x_month 6) (= x_month 9) (= x_month 11))))
 (ite $x338 $x345 true))))
(assert
 (let (($x301 (= x_year 2020)))
 (let (($x291 (and $x301 (or (> x_month 1) (and (= x_month 1) (>= x_day 1))))))
 (or (> x_year 2020) $x291))))
(assert
 (let (($x301 (= x_year 2020)))
 (let (($x324 (and $x301 (or (< x_month 2) (and (= x_month 2) (<= x_day 28))))))
 (or (< x_year 2020) $x324))))
(assert
 (let (($x29 (or (and (= (mod 2000 4) 0) (and (distinct (mod 2000 100) 0) true)) (= (mod 2000 400) 0))))
(let ((?x36 (ite (= 3 2) (ite $x29 31 31) (ite (= 3 1) (ite $x29 0 0) 0))))
(let ((?x40 (ite $x29 60 59)))
(let ((?x41 (ite (= 3 3) ?x40 ?x36)))
(let ((?x46 (ite (= 3 4) (ite $x29 91 90) ?x41)))
(let ((?x52 (ite (= 3 5) (ite $x29 121 120) ?x46)))
(let ((?x58 (ite (= 3 6) (ite $x29 152 151) ?x52)))
(let ((?x64 (ite (= 3 7) (ite $x29 182 181) ?x58)))
(let ((?x70 (ite (= 3 8) (ite $x29 213 212) ?x64)))
(let ((?x76 (ite (= 3 9) (ite $x29 244 243) ?x70)))
(let ((?x82 (ite (= 3 10) (ite $x29 274 273) ?x76)))
(let ((?x88 (ite (= 3 11) (ite $x29 305 304) ?x82)))
(let ((?x16 (- (+ (* 365 (- 2000 1)) (div (- 2000 1) 4)) (div (- 2000 1) 100))))
(let ((?x95 (+ (+ ?x16 (div (- 2000 1) 400)) (ite (= 3 12) (ite $x29 335 334) ?x88))))
(let ((?x97 (+ ?x95 (- 1 1))))
(let ((?x484 (+ (mod (- (+ x_month (+ (* 0 12) 0)) 1) 12) 1)))
(let ((?x552 (ite (or (= ?x484 4) (= ?x484 6) (= ?x484 9) (= ?x484 11)) 30 31)))
(let ((?x483 (+ 0 (div (- (+ x_month (+ (* 0 12) 0)) 1) 12))))
(let ((?x530 (+ x_year ?x483)))
(let (($x538 (or (and (= (mod ?x530 4) 0) (and (distinct (mod ?x530 100) 0) true)) (= (mod ?x530 400) 0))))
(let ((?x553 (ite (= ?x484 2) (ite $x538 29 28) ?x552)))
(let (($x152 (< x_day 1)))
(let ((?x545 (ite $x152 1 (ite (> x_day ?x553) ?x553 x_day))))
(let ((?x633 (ite (< ?x545 1) 1 (ite (> ?x545 ?x553) ?x553 ?x545))))
(let ((?x594 (ite (= 2 ?x484) (ite $x538 31 31) (ite (= 1 ?x484) (ite $x538 0 0) 0))))
(let ((?x588 (ite (= 4 ?x484) (ite $x538 91 90) (ite (= 3 ?x484) (ite $x538 60 59) ?x594))))
(let ((?x582 (ite (= 6 ?x484) (ite $x538 152 151) (ite (= 5 ?x484) (ite $x538 121 120) ?x588))))
(let ((?x576 (ite (= 8 ?x484) (ite $x538 213 212) (ite (= 7 ?x484) (ite $x538 182 181) ?x582))))
(let ((?x587 (ite (= 10 ?x484) (ite $x538 274 273) (ite (= 9 ?x484) (ite $x538 244 243) ?x576))))
(let ((?x634 (ite (= 12 ?x484) (ite $x538 335 334) (ite (= 11 ?x484) (ite $x538 305 304) ?x587))))
(let ((?x559 (- (+ (* 365 (- ?x530 1)) (div (- ?x530 1) 4)) (div (- ?x530 1) 100))))
(let ((?x627 (- (+ (+ (+ ?x559 (div (- ?x530 1) 400)) ?x634) (- ?x633 1)) ?x97)))
(let ((?x624 (+ (+ ?x627 365) ?x97)))
(let ((?x621 (mod ?x624 146097)))
(let ((?x622 (div ?x621 36524)))
(let ((?x619 (ite (<= 4 ?x622) 3 ?x622)))
(let ((?x616 (- ?x621 (* ?x619 36524))))
(let ((?x613 (mod ?x616 1461)))
(let ((?x609 (div ?x613 365)))
(let ((?x606 (ite (<= 4 ?x609) 3 ?x609)))
(let ((?x598 (+ (+ (* (div ?x624 146097) 400) (* ?x619 100)) (* (div ?x616 1461) 4))))
(let ((?x602 (+ (+ ?x598 ?x606) 1)))
(let (($x626 (or (and (= (mod ?x602 4) 0) (and (distinct (mod ?x602 100) 0) true)) (= (mod ?x602 400) 0))))
(let ((?x603 (- ?x613 (* ?x606 365))))
(let ((?x632 (ite $x626 31 31)))
(let (($x219 (>= ?x603 ?x632)))
(let ((?x169 (ite $x219 (+ (- ?x603 ?x632) 1) (+ (- ?x603 (ite $x626 0 0)) 1))))
(let ((?x635 (ite $x626 60 59)))
(let (($x225 (>= ?x603 ?x635)))
(let ((?x450 (ite $x626 91 90)))
(let (($x231 (>= ?x603 ?x450)))
(let ((?x176 (ite $x231 (+ (- ?x603 ?x450) 1) (ite $x225 (+ (- ?x603 ?x635) 1) ?x169))))
(let ((?x636 (ite $x626 121 120)))
(let (($x237 (>= ?x603 ?x636)))
(let ((?x187 (ite $x626 152 151)))
(let (($x241 (>= ?x603 ?x187)))
(let ((?x202 (ite $x241 (+ (- ?x603 ?x187) 1) (ite $x237 (+ (- ?x603 ?x636) 1) ?x176))))
(let ((?x189 (ite $x626 182 181)))
(let (($x171 (>= ?x603 ?x189)))
(let ((?x190 (ite $x626 213 212)))
(let (($x180 (>= ?x603 ?x190)))
(let ((?x647 (ite $x180 (+ (- ?x603 ?x190) 1) (ite $x171 (+ (- ?x603 ?x189) 1) ?x202))))
(let ((?x191 (ite $x626 244 243)))
(let (($x213 (>= ?x603 ?x191)))
(let ((?x192 (ite $x626 274 273)))
(let (($x207 (>= ?x603 ?x192)))
(let ((?x650 (ite $x207 (+ (- ?x603 ?x192) 1) (ite $x213 (+ (- ?x603 ?x191) 1) ?x647))))
(let ((?x193 (ite $x626 305 304)))
(let (($x220 (>= ?x603 ?x193)))
(let ((?x194 (ite $x626 335 334)))
(let (($x217 (>= ?x603 ?x194)))
(let ((?x656 (ite $x217 (+ (- ?x603 ?x194) 1) (ite $x220 (+ (- ?x603 ?x193) 1) ?x650))))
(let (($x452 (= 0 365)))
(let ((?x314 (+ (mod (- (+ x_month (+ (* 1 12) 0)) 1) 12) 1)))
(let ((?x343 (ite (or (= ?x314 4) (= ?x314 6) (= ?x314 9) (= ?x314 11)) 30 31)))
(let ((?x285 (+ 0 (div (- (+ x_month (+ (* 1 12) 0)) 1) 12))))
(let ((?x315 (+ x_year ?x285)))
(let (($x331 (or (and (= (mod ?x315 4) 0) (and (distinct (mod ?x315 100) 0) true)) (= (mod ?x315 400) 0))))
(let ((?x151 (ite (= ?x314 2) (ite $x331 29 28) ?x343)))
(let ((?x350 (ite $x152 1 (ite (> x_day ?x151) ?x151 x_day))))
(let ((?x140 (ite (< ?x350 1) 1 (ite (> ?x350 ?x151) ?x151 ?x350))))
(let ((?x382 (ite (= 2 ?x314) (ite $x331 31 31) (ite (= 1 ?x314) (ite $x331 0 0) 0))))
(let ((?x376 (ite (= 4 ?x314) (ite $x331 91 90) (ite (= 3 ?x314) (ite $x331 60 59) ?x382))))
(let ((?x370 (ite (= 6 ?x314) (ite $x331 152 151) (ite (= 5 ?x314) (ite $x331 121 120) ?x376))))
(let ((?x360 (ite (= 8 ?x314) (ite $x331 213 212) (ite (= 7 ?x314) (ite $x331 182 181) ?x370))))
(let ((?x375 (ite (= 10 ?x314) (ite $x331 274 273) (ite (= 9 ?x314) (ite $x331 244 243) ?x360))))
(let ((?x141 (ite (= 12 ?x314) (ite $x331 335 334) (ite (= 11 ?x314) (ite $x331 305 304) ?x375))))
(let ((?x129 (- (+ (* 365 (- ?x315 1)) (div (- ?x315 1) 4)) (div (- ?x315 1) 100))))
(let ((?x396 (- (+ (+ (+ ?x129 (div (- ?x315 1) 400)) ?x141) (- ?x140 1)) ?x97)))
(let ((?x392 (+ (+ ?x396 0) ?x97)))
(let ((?x407 (mod ?x392 146097)))
(let ((?x404 (div ?x407 36524)))
(let ((?x355 (ite (<= 4 ?x404) 3 ?x404)))
(let ((?x402 (- ?x407 (* ?x355 36524))))
(let ((?x383 (mod ?x402 1461)))
(let ((?x403 (div ?x383 365)))
(let ((?x399 (ite (<= 4 ?x403) 3 ?x403)))
(let ((?x398 (+ (+ (* (div ?x392 146097) 400) (* ?x355 100)) (* (div ?x402 1461) 4))))
(let ((?x103 (+ (+ ?x398 ?x399) 1)))
(let (($x143 (or (and (= (mod ?x103 4) 0) (and (distinct (mod ?x103 100) 0) true)) (= (mod ?x103 400) 0))))
(let ((?x406 (- ?x383 (* ?x399 365))))
(let ((?x253 (ite $x143 31 31)))
(let (($x489 (>= ?x406 ?x253)))
(let ((?x508 (ite $x489 (+ (- ?x406 ?x253) 1) (+ (- ?x406 (ite $x143 0 0)) 1))))
(let ((?x144 (ite $x143 60 59)))
(let (($x491 (>= ?x406 ?x144)))
(let ((?x453 (ite $x143 91 90)))
(let (($x456 (>= ?x406 ?x453)))
(let ((?x499 (ite $x456 (+ (- ?x406 ?x453) 1) (ite $x491 (+ (- ?x406 ?x144) 1) ?x508))))
(let ((?x454 (ite $x143 121 120)))
(let (($x526 (>= ?x406 ?x454)))
(let ((?x455 (ite $x143 152 151)))
(let (($x462 (>= ?x406 ?x455)))
(let ((?x495 (ite $x462 (+ (- ?x406 ?x455) 1) (ite $x526 (+ (- ?x406 ?x454) 1) ?x499))))
(let ((?x457 (ite $x143 182 181)))
(let (($x464 (>= ?x406 ?x457)))
(let ((?x459 (ite $x143 213 212)))
(let (($x466 (>= ?x406 ?x459)))
(let ((?x513 (ite $x466 (+ (- ?x406 ?x459) 1) (ite $x464 (+ (- ?x406 ?x457) 1) ?x495))))
(let ((?x485 (ite $x143 244 243)))
(let (($x468 (>= ?x406 ?x485)))
(let ((?x486 (ite $x143 274 273)))
(let (($x523 (>= ?x406 ?x486)))
(let ((?x529 (ite $x523 (+ (- ?x406 ?x486) 1) (ite $x468 (+ (- ?x406 ?x485) 1) ?x513))))
(let ((?x487 (ite $x143 305 304)))
(let (($x520 (>= ?x406 ?x487)))
(let ((?x488 (ite $x143 335 334)))
(let (($x517 (>= ?x406 ?x488)))
(let ((?x472 (ite $x517 (+ (- ?x406 ?x488) 1) (ite $x520 (+ (- ?x406 ?x487) 1) ?x529))))
(let (($x265 (= 0 0)))
(let ((?x240 (ite $x237 5 (ite $x231 4 (ite $x225 3 (ite $x219 2 1))))))
(let ((?x210 (ite $x213 9 (ite $x180 8 (ite $x171 7 (ite $x241 6 ?x240))))))
(let ((?x218 (ite $x217 12 (ite $x220 11 (ite $x207 10 ?x210)))))
(let ((?x461 (ite $x526 5 (ite $x456 4 (ite $x491 3 (ite $x489 2 1))))))
(let ((?x527 (ite $x468 9 (ite $x466 8 (ite $x464 7 (ite $x462 6 ?x461))))))
(let (($x277 (= (ite $x265 ?x314 (ite $x517 12 (ite $x520 11 (ite $x523 10 ?x527)))) (ite $x452 ?x484 ?x218))))
(let (($x660 (and (= (ite $x265 ?x315 ?x103) (ite $x452 ?x530 ?x602)) $x277 (= (ite $x265 ?x140 ?x472) (ite $x452 ?x633 ?x656)))))
(not $x660)))))))))))))))))))))))))))))))))))))))))))))))))))))))))))))))))))))))))))))))))))))))))))))))))))))))))))))))))))))))))))))))))))))))))))
(check-sat)
